p cnf 129 499
1 2 3 4 5 6 7 8 9 0
38 39 40 41 42 43 44 45 46 47 48 49 50 51 0
102 103 104 105 106 107 108 109 110 111 112 113 114 0
-1 -10 0
-1 -24 0
-1 -38 0
-1 -52 0
-1 -66 0
-1 -78 0
-1 -89 0
-1 -102 0
-1 -115 0
-10 -24 0
-10 -38 0
-10 -52 0
-10 -66 0
-10 -78 0
-10 -89 0
-10 -102 0
-10 -115 0
-24 -38 0
-24 -52 0
-24 -66 0
-24 -78 0
-24 -89 0
-24 -102 0
-24 -115 0
-38 -52 0
-38 -66 0
-38 -78 0
-38 -89 0
-38 -102 0
-38 -115 0
-52 -66 0
-52 -78 0
-52 -89 0
-52 -102 0
-52 -115 0
-66 -78 0
-66 -89 0
-66 -102 0
-66 -115 0
-78 -89 0
-78 -102 0
-78 -115 0
-89 -102 0
-89 -115 0
-102 -115 0
-11 -25 0
-11 -39 0
-11 -53 0
-11 -67 0
-11 -79 0
-11 -90 0
-11 -103 0
-11 -116 0
-25 -39 0
-25 -53 0
-25 -67 0
-25 -79 0
-25 -90 0
-25 -103 0
-25 -116 0
-39 -53 0
-39 -67 0
-39 -79 0
-39 -90 0
-39 -103 0
-39 -116 0
-53 -67 0
-53 -79 0
-53 -90 0
-53 -103 0
-53 -116 0
-67 -79 0
-67 -90 0
-67 -103 0
-67 -116 0
-79 -90 0
-79 -103 0
-79 -116 0
-90 -103 0
-90 -116 0
-103 -116 0
-12 -26 0
-12 -54 0
-12 -68 0
-12 -80 0
-12 -91 0
-12 -104 0
-12 -117 0
-26 -54 0
-26 -68 0
-26 -80 0
-26 -91 0
-26 -104 0
-26 -117 0
-54 -68 0
-54 -80 0
-54 -91 0
-54 -104 0
-54 -117 0
-68 -80 0
-68 -91 0
-68 -104 0
-68 -117 0
-80 -91 0
-80 -104 0
-80 -117 0
-91 -104 0
-91 -117 0
-104 -117 0
-2 -13 0
-2 -27 0
-2 -40 0
-2 -55 0
-2 -69 0
-2 -92 0
-2 -105 0
-2 -118 0
-13 -27 0
-13 -40 0
-13 -55 0
-13 -69 0
-13 -92 0
-13 -105 0
-13 -118 0
-27 -40 0
-27 -55 0
-27 -69 0
-27 -92 0
-27 -105 0
-27 -118 0
-40 -55 0
-40 -69 0
-40 -92 0
-40 -105 0
-40 -118 0
-55 -69 0
-55 -92 0
-55 -105 0
-55 -118 0
-69 -92 0
-69 -105 0
-69 -118 0
-92 -105 0
-92 -118 0
-105 -118 0
-3 -14 0
-3 -28 0
-3 -41 0
-3 -56 0
-3 -70 0
-3 -81 0
-3 -93 0
-3 -106 0
-3 -119 0
-14 -28 0
-14 -41 0
-14 -56 0
-14 -70 0
-14 -81 0
-14 -93 0
-14 -106 0
-14 -119 0
-28 -41 0
-28 -56 0
-28 -70 0
-28 -81 0
-28 -93 0
-28 -106 0
-28 -119 0
-41 -56 0
-41 -70 0
-41 -81 0
-41 -93 0
-41 -106 0
-41 -119 0
-56 -70 0
-56 -81 0
-56 -93 0
-56 -106 0
-56 -119 0
-70 -81 0
-70 -93 0
-70 -106 0
-70 -119 0
-81 -93 0
-81 -106 0
-81 -119 0
-93 -106 0
-93 -119 0
-106 -119 0
-4 -15 0
-4 -29 0
-4 -42 0
-4 -82 0
-4 -107 0
-4 -120 0
-15 -29 0
-15 -42 0
-15 -82 0
-15 -107 0
-15 -120 0
-29 -42 0
-29 -82 0
-29 -107 0
-29 -120 0
-42 -82 0
-42 -107 0
-42 -120 0
-82 -107 0
-82 -120 0
-107 -120 0
-5 -43 0
-5 -57 0
-5 -83 0
-5 -94 0
-5 -108 0
-5 -121 0
-43 -57 0
-43 -83 0
-43 -94 0
-43 -108 0
-43 -121 0
-57 -83 0
-57 -94 0
-57 -108 0
-57 -121 0
-83 -94 0
-83 -108 0
-83 -121 0
-94 -108 0
-94 -121 0
-108 -121 0
-6 -16 0
-6 -30 0
-6 -44 0
-6 -58 0
-6 -71 0
-6 -109 0
-6 -122 0
-16 -30 0
-16 -44 0
-16 -58 0
-16 -71 0
-16 -109 0
-16 -122 0
-30 -44 0
-30 -58 0
-30 -71 0
-30 -109 0
-30 -122 0
-44 -58 0
-44 -71 0
-44 -109 0
-44 -122 0
-58 -71 0
-58 -109 0
-58 -122 0
-71 -109 0
-71 -122 0
-109 -122 0
-17 -31 0
-17 -45 0
-17 -59 0
-17 -72 0
-17 -84 0
-17 -95 0
-17 -110 0
-17 -123 0
-31 -45 0
-31 -59 0
-31 -72 0
-31 -84 0
-31 -95 0
-31 -110 0
-31 -123 0
-45 -59 0
-45 -72 0
-45 -84 0
-45 -95 0
-45 -110 0
-45 -123 0
-59 -72 0
-59 -84 0
-59 -95 0
-59 -110 0
-59 -123 0
-72 -84 0
-72 -95 0
-72 -110 0
-72 -123 0
-84 -95 0
-84 -110 0
-84 -123 0
-95 -110 0
-95 -123 0
-110 -123 0
-7 -18 0
-7 -32 0
-7 -46 0
-7 -60 0
-7 -73 0
-7 -96 0
-7 -111 0
-7 -124 0
-18 -32 0
-18 -46 0
-18 -60 0
-18 -73 0
-18 -96 0
-18 -111 0
-18 -124 0
-32 -46 0
-32 -60 0
-32 -73 0
-32 -96 0
-32 -111 0
-32 -124 0
-46 -60 0
-46 -73 0
-46 -96 0
-46 -111 0
-46 -124 0
-60 -73 0
-60 -96 0
-60 -111 0
-60 -124 0
-73 -96 0
-73 -111 0
-73 -124 0
-96 -111 0
-96 -124 0
-111 -124 0
-19 -33 0
-19 -47 0
-19 -61 0
-19 -74 0
-19 -85 0
-19 -97 0
-19 -112 0
-19 -125 0
-33 -47 0
-33 -61 0
-33 -74 0
-33 -85 0
-33 -97 0
-33 -112 0
-33 -125 0
-47 -61 0
-47 -74 0
-47 -85 0
-47 -97 0
-47 -112 0
-47 -125 0
-61 -74 0
-61 -85 0
-61 -97 0
-61 -112 0
-61 -125 0
-74 -85 0
-74 -97 0
-74 -112 0
-74 -125 0
-85 -97 0
-85 -112 0
-85 -125 0
-97 -112 0
-97 -125 0
-112 -125 0
-20 -34 0
-20 -48 0
-20 -62 0
-20 -75 0
-20 -86 0
-20 -98 0
-20 -126 0
-34 -48 0
-34 -62 0
-34 -75 0
-34 -86 0
-34 -98 0
-34 -126 0
-48 -62 0
-48 -75 0
-48 -86 0
-48 -98 0
-48 -126 0
-62 -75 0
-62 -86 0
-62 -98 0
-62 -126 0
-75 -86 0
-75 -98 0
-75 -126 0
-86 -98 0
-86 -126 0
-98 -126 0
-8 -21 0
-8 -35 0
-8 -49 0
-8 -63 0
-8 -76 0
-8 -99 0
-8 -127 0
-21 -35 0
-21 -49 0
-21 -63 0
-21 -76 0
-21 -99 0
-21 -127 0
-35 -49 0
-35 -63 0
-35 -76 0
-35 -99 0
-35 -127 0
-49 -63 0
-49 -76 0
-49 -99 0
-49 -127 0
-63 -76 0
-63 -99 0
-63 -127 0
-76 -99 0
-76 -127 0
-99 -127 0
-22 -36 0
-22 -50 0
-22 -64 0
-22 -77 0
-22 -87 0
-22 -100 0
-22 -113 0
-22 -128 0
-36 -50 0
-36 -64 0
-36 -77 0
-36 -87 0
-36 -100 0
-36 -113 0
-36 -128 0
-50 -64 0
-50 -77 0
-50 -87 0
-50 -100 0
-50 -113 0
-50 -128 0
-64 -77 0
-64 -87 0
-64 -100 0
-64 -113 0
-64 -128 0
-77 -87 0
-77 -100 0
-77 -113 0
-77 -128 0
-87 -100 0
-87 -113 0
-87 -128 0
-100 -113 0
-100 -128 0
-113 -128 0
-9 -23 0
-9 -37 0
-9 -51 0
-9 -65 0
-9 -88 0
-9 -101 0
-9 -114 0
-9 -129 0
-23 -37 0
-23 -51 0
-23 -65 0
-23 -88 0
-23 -101 0
-23 -114 0
-23 -129 0
-37 -51 0
-37 -65 0
-37 -88 0
-37 -101 0
-37 -114 0
-37 -129 0
-51 -65 0
-51 -88 0
-51 -101 0
-51 -114 0
-51 -129 0
-65 -88 0
-65 -101 0
-65 -114 0
-65 -129 0
-88 -101 0
-88 -114 0
-88 -129 0
-101 -114 0
-101 -129 0
-114 -129 0
